************************************************************************
file with basedata            : j903_.bas
initial value random generator: 1036762063
************************************************************************
projects                      :  1
jobs (incl. supersource/sink ):  92
horizon                       :  475
RESOURCES
  - renewable                 :  4   R
  - nonrenewable              :  0   N
  - doubly constrained        :  0   D
************************************************************************
PROJECT INFORMATION:
pronr.  #jobs rel.date duedate tardcost  MPM-Time
    1     90      0       84       58       84
************************************************************************
PRECEDENCE RELATIONS:
jobnr.    #modes  #successors   successors
   1        1          3           2   3   4
   2        1          3           6  12  19
   3        1          3           7  22  30
   4        1          3           5   9  13
   5        1          1          72
   6        1          3          15  16  17
   7        1          1           8
   8        1          3          26  34  37
   9        1          3          10  11  18
  10        1          1          45
  11        1          1          43
  12        1          1          91
  13        1          3          14  20  77
  14        1          2          63  80
  15        1          2          24  33
  16        1          1          66
  17        1          2          23  36
  18        1          2          25  32
  19        1          2          42  79
  20        1          2          21  22
  21        1          1          52
  22        1          1          52
  23        1          1          50
  24        1          1          82
  25        1          3          39  43  48
  26        1          3          27  28  35
  27        1          1          46
  28        1          3          29  31  51
  29        1          2          60  65
  30        1          1          70
  31        1          1          44
  32        1          1          86
  33        1          3          38  47  65
  34        1          1          79
  35        1          3          60  75  84
  36        1          1          73
  37        1          1          57
  38        1          1          44
  39        1          3          40  41  52
  40        1          3          53  54  73
  41        1          1          75
  42        1          2          46  61
  43        1          1          55
  44        1          1          62
  45        1          1          58
  46        1          1          63
  47        1          2          50  88
  48        1          2          49  78
  49        1          1          83
  50        1          2          55  72
  51        1          2          56  89
  52        1          1          55
  53        1          1          64
  54        1          2          63  65
  55        1          2          67  71
  56        1          1          75
  57        1          1          59
  58        1          1          89
  59        1          2          69  76
  60        1          1          68
  61        1          1          66
  62        1          1          87
  63        1          2          70  74
  64        1          1          86
  65        1          1          87
  66        1          1          71
  67        1          1          70
  68        1          1          82
  69        1          1          84
  70        1          1          83
  71        1          1          90
  72        1          1          79
  73        1          1          74
  74        1          2          78  83
  75        1          1          91
  76        1          1          84
  77        1          1          88
  78        1          1          81
  79        1          1          85
  80        1          1          82
  81        1          1          89
  82        1          1          88
  83        1          1          85
  84        1          1          86
  85        1          1          87
  86        1          1          90
  87        1          1          91
  88        1          1          90
  89        1          1          92
  90        1          1          92
  91        1          1          92
  92        1          0        
************************************************************************
REQUESTS/DURATIONS:
jobnr. mode duration  R 1  R 2  R 3  R 4
------------------------------------------------------------------------
  1      1     0       0    0    0    0
  2      1     4       6    0    0    0
  3      1     1       0    0    0    5
  4      1     5       0    0    9    0
  5      1     7       0    0    6    0
  6      1     3       0    6    0    0
  7      1     5       0    5    0    0
  8      1     1       0    0    2    0
  9      1     1       0    0    0   10
 10      1     8       1    0    0    0
 11      1     6       0    0    0    3
 12      1     4       0    0    0    3
 13      1     3       0    0    0    8
 14      1     1       9    0    0    0
 15      1     2       0    0    6    0
 16      1     5       0    0    3    0
 17      1     9       5    0    0    0
 18      1    10       0    1    0    0
 19      1     8       0   10    0    0
 20      1     7       6    0    0    0
 21      1    10       0    2    0    0
 22      1     8       0   10    0    0
 23      1     3       0    0    0    1
 24      1     3       4    0    0    0
 25      1     9       2    0    0    0
 26      1     7       0    2    0    0
 27      1     6       0    0    0    3
 28      1     2       0    5    0    0
 29      1     2       0    1    0    0
 30      1     3       0    0    1    0
 31      1    10       1    0    0    0
 32      1     3       0    0    9    0
 33      1     4       0    0    0    2
 34      1     9       0    0    0   10
 35      1     4      10    0    0    0
 36      1     7       0    9    0    0
 37      1     3       0    0    0    1
 38      1     9       0    0    4    0
 39      1     5       9    0    0    0
 40      1     4       0   10    0    0
 41      1     7       0    0    2    0
 42      1     1       0    0    0    2
 43      1     4       0    0    0    2
 44      1     6       6    0    0    0
 45      1     5       0    0    8    0
 46      1     6       0    6    0    0
 47      1     6       6    0    0    0
 48      1     7       0    0    0    6
 49      1     3       0    8    0    0
 50      1     3       8    0    0    0
 51      1     1       3    0    0    0
 52      1     6       0    0    0   10
 53      1     6       0    0    0   10
 54      1     5       0    4    0    0
 55      1     8       3    0    0    0
 56      1     8       0    0    6    0
 57      1     5       0    0    0    2
 58      1     1       0    0    0    3
 59      1     6       0    0    6    0
 60      1     4       0    0    0    6
 61      1     5       0    0    0    1
 62      1     9       6    0    0    0
 63      1    10       0    5    0    0
 64      1     5       7    0    0    0
 65      1     2       0    5    0    0
 66      1     4       5    0    0    0
 67      1     9       0    6    0    0
 68      1     2       0    9    0    0
 69      1    10       0    3    0    0
 70      1     3       0    0    6    0
 71      1     6       0    6    0    0
 72      1     6       0    0    0    2
 73      1    10       2    0    0    0
 74      1     9       1    0    0    0
 75      1     2       0    0    6    0
 76      1     9       0    0    1    0
 77      1     7       0    8    0    0
 78      1    10       0    0    7    0
 79      1     1       0    0    1    0
 80      1     4       7    0    0    0
 81      1    10       0    0    8    0
 82      1     3       0    0    0   10
 83      1     3       0    8    0    0
 84      1     4       0    8    0    0
 85      1     4       0    0    0    7
 86      1     3       0    0    1    0
 87      1     5       0    0    6    0
 88      1     2       0    0    3    0
 89      1     6       0    0    6    0
 90      1     4       0    2    0    0
 91      1     9       0    8    0    0
 92      1     0       0    0    0    0
************************************************************************
RESOURCEAVAILABILITIES:
  R 1  R 2  R 3  R 4
   22   30   26   21
************************************************************************
